NAME : zqloutput/eax-hard-simple-rescaleandround/50-3.tsp
TYPE : TSP
DIMENSION : 50
EDGE_WEIGHT_TYPE : EUC_2D
NODE_COORD_SECTION
1 993443 883852
2 749655 893685
3 560353 709849
4 563493 840549
5 351009 822416
6 392718 149160
7 475499 527369
8 59059 392102
9 711204 880436
10 799307 643448
11 290063 339032
12 940279 208762
13 575027 757673
14 212646 976699
15 980359 423986
16 181377 126239
17 878170 521611
18 723651 125014
19 661393 85013
20 494372 667409
21 679414 617390
22 619518 243629
23 957392 535518
24 304656 693007
25 674701 295694
26 715145 543418
27 510857 484499
28 762723 203193
29 161854 214887
30 589760 815752
31 565189 160721
32 676960 738734
33 745001 111303
34 729392 270018
35 565716 456993
36 396229 512678
37 410729 133038
38 462469 431778
39 971219 604662
40 81587 178135
41 352633 28444
42 503256 185030
43 305806 859623
44 421118 547723
45 102751 780190
46 634200 578189
47 420547 266650
48 292597 232976
49 673407 334483
50 477472 473561
EOF
